%nprocshared=8
%chk=Preview_en520.chk
#p opt=tight freq b3lyp/6-31g(d,p) guess=save geom=connectivity

MATrp OptFreq tight B3LYP/6-31Gd

0 1
 N                  1.89041900    0.43518700    0.00467600
 C                  1.02163400    1.12570000   -0.92807900
 H                 -0.01047237    0.94294697   -0.61465923
 C                  1.15870827    0.59333281   -2.34707560
 O                  0.38751722    0.87674104   -3.23810144
 C                  1.22616329    2.67584505   -0.91532057
 H                  0.50594857    3.10648997   -1.62005574
 H                  0.93551394    3.00317845    0.08766803
 C                  2.62099192    3.13264149   -1.22738243
 C                  3.60404762    3.39748112   -0.30490879
 H                  3.55805565    3.35804909    0.77521407
 C                  3.21325389    3.36668938   -2.52628408
 N                  4.77089037    3.77098212   -0.94457003
 H                  5.61679706    4.06845142   -0.48432101
 C                  4.56040836    3.77075141   -2.30846807
 C                  2.73744028    3.29392309   -3.84944751
 H                  1.71458308    2.98987984   -4.05128695
 C                  5.42809887    4.09049929   -3.35813264
 H                  6.45358450    4.39820271   -3.16934928
 C                  3.59684453    3.61121865   -4.89484141
 H                  3.23570012    3.56193123   -5.91860972
 C                  4.92925626    4.00434448   -4.65246487
 H                  5.57612108    4.24820815   -5.49082165
 O                  2.25060375   -0.18140049   -2.51697038
 H                  1.54000801    0.28370903    0.93777001
 C                  2.49280587   -0.62805775   -3.86491363
 H                  3.34451094   -1.30535596   -3.79882624
 H                  1.61466988   -1.14448316   -4.25859393
 H                  2.73065541    0.22807948   -4.50108010
 C                  3.09614298   -0.07360104   -0.39147101
 C                  3.89039098   -0.78594204    0.67763499
 C                  5.07278196   -1.29611208    0.31686298
 C                  3.34479301   -0.89739899    2.08133300
 O                  3.50041096    0.05117592   -1.54694902
 H                  5.70812996   -1.82104108    1.02491198
 H                  5.42274094   -1.18803011   -0.70434603
 H                  4.04399600   -1.43599399    2.72728500
 H                  3.17193904    0.08960703    2.53058498
 H                  2.38899199   -1.43882496    2.10636904

 1 2 1.0 25 1.0 30 1.5
 2 3 1.0 4 1.0 6 1.0
 3
 4 5 2.0 24 1.0
 5
 6 7 1.0 8 1.0 9 1.0
 7
 8
 9 10 2.0 12 1.5
 10 11 1.0 13 1.0
 11
 12 15 1.5 16 1.5
 13 14 1.0 15 1.5
 14
 15 18 1.5
 16 17 1.0 20 1.5
 17
 18 19 1.0 22 1.5
 19
 20 21 1.0 22 1.5
 21
 22 23 1.0
 23
 24 26 1.0
 25
 26 27 1.0 28 1.0 29 1.0
 27
 28
 29
 30 31 1.0 34 2.0
 31 32 2.0 33 1.0
 32 35 1.0 36 1.0
 33 37 1.0 38 1.0 39 1.0
 34
 35
 36
 37
 38
 39