%chk=MATrp_OptFreq.chk
%nprocshared=8
#p opt=tight freq b3lyp/6-31g(d,p) guess=save geom=connectivity

MATrp OptFreq tight B3LYP/6-31Gd

0 1
 N                 -2.27913724    1.54938492    0.00729723
 C                 -1.26673456    2.08008071   -0.88434747
 H                 -1.19464520    1.40378697   -1.74126292
 C                  0.10841800    2.12590500   -0.23426200
 O                  1.12800973    2.33435849   -0.85552102
 C                 -1.63700487    3.48818089   -1.45452151
 H                 -0.83454376    3.78505359   -2.13916647
 H                 -2.53804303    3.33477251   -2.05635739
 C                 -1.87770259    4.54692644   -0.41880197
 C                 -3.09769747    4.88494027    0.11491642
 H                 -4.07889343    4.49273384   -0.11695455
 C                 -0.90405178    5.39761444    0.23006796
 N                 -2.94574126    5.88228696    1.05958590
 H                 -3.69888941    6.33765802    1.55078883
 C                 -1.61178306    6.22508952    1.14654847
 C                  0.49027908    5.55718138    0.11677715
 H                  1.06098437    4.94272350   -0.57326292
 C                 -0.97355874    7.18323485    1.94124873
 H                 -1.53366599    7.80600782    2.63433965
 C                  1.12763894    6.50850108    0.90472624
 H                  2.20291366    6.64083257    0.81970416
 C                  0.40385748    7.31286446    1.80902446
 H                  0.93047510    8.04942570    2.40977157
 O                  0.06513400    1.96077800    1.10445800
 H                 -2.15803238    1.71367877    0.99458594
 C                 -0.78429781    2.88010884    1.81748815
 H                 -0.62598087    2.66341660    2.87412534
 H                 -0.50839284    3.91121369    1.58618436
 H                 -1.82787877    2.70907005    1.54192395
 C                 -3.40026788    0.93461644   -0.47715488
 C                 -4.38151803    0.44667504    0.56222404
 C                 -5.48878276   -0.15609169    0.11600051
 C                 -4.09308576    0.64545909    2.03115550
 O                 -3.58513585    0.78937216   -1.68498734
 H                 -6.24425993   -0.53895412    0.79660430
 H                 -5.64982646   -0.27732018   -0.95001517
 H                 -4.89910190    0.23172281    2.64384113
 H                 -3.16018581    0.15129785    2.33346173
 H                 -3.99650585    1.70937120    2.28823101

 1 2 1.0 25 1.0 30 1.5
 2 3 1.0 4 1.0 6 1.0
 3
 4 5 2.0 24 1.0
 5
 6 7 1.0 8 1.0 9 1.0
 7
 8
 9 10 2.0 12 1.5
 10 11 1.0 13 1.0
 11
 12 15 1.5 16 1.5
 13 14 1.0 15 1.5
 14
 15 18 1.5
 16 17 1.0 20 1.5
 17
 18 19 1.0 22 1.5
 19
 20 21 1.0 22 1.5
 21
 22 23 1.0
 23
 24 26 1.0
 25
 26 27 1.0 28 1.0 29 1.0
 27
 28
 29
 30 31 1.0 34 2.0
 31 32 2.0 33 1.0
 32 35 1.0 36 1.0
 33 37 1.0 38 1.0 39 1.0
 34
 35
 36
 37
 38
 39

