%nprocshared=8
%chk=D:\backups\Depo1\ChemChem\3\out\MATrp\MATrp_D9\MATrp_D9.chk
#p opt=tight freq b3lyp/6-31g(d,p) guess=save geom=connectivity

MATrp OptFreq tight B3LYP/6-31Gd

0 1
 N                  1.89041900    0.43518700    0.00467600
 C                  1.02163402    1.12570003   -0.92807899
 H                  1.65812403    1.69333704   -1.61331097
 C                  0.10841802    2.12590502   -0.23426198
 O                 -0.54394297    2.95333804   -0.83322996
 C                  0.17560002    0.14838706   -1.80786903
 H                 -0.41602097    0.75942208   -2.49883702
 H                  0.90047202   -0.41103593   -2.40721603
 C                 -0.70243400   -0.79535695   -1.03975706
 C                 -0.36646401   -2.07064996   -0.65472709
 H                  0.54161898   -2.62674297   -0.84572809
 C                 -2.04070900   -0.56321595   -0.54193307
 N                 -1.40320403   -2.64294997    0.05789789
 H                 -1.42013704   -3.59094198    0.39980386
 C                 -2.44903102   -1.74594197    0.13627590
 C                 -2.94200299    0.51596706   -0.61601505
 H                 -2.66292398    1.43294607   -1.12658602
 C                 -3.70657003   -1.87218297    0.73592588
 H                 -3.99884604   -2.78546398    1.24820885
 C                 -4.19250300    0.39383405   -0.02151207
 H                 -4.89543299    1.22064306   -0.07836605
 C                 -4.57117302   -0.78753096    0.64901090
 H                 -5.55672402   -0.85329297    1.10190189
 O                  0.06513400    1.96077799    1.10445802
 H                  1.54000799    0.28370898    0.93776999
 C                 -0.86409400    2.80890198    1.80612503
 H                 -0.69935201    2.60829495    2.86495403
 H                 -0.67134599    3.85864898    1.57443206
 H                 -1.88725500    2.55219399    1.52065401
 C                  3.09614300   -0.07360100   -0.39147100
 C                  3.12639581   -1.56098882   -0.65225722
 C                  4.29279645   -2.08498950   -1.04393463
 C                  1.87759446   -2.38975666   -0.46757642
 O                  4.08794782    0.64341013   -0.51933647
 H                  4.40160068   -3.14632363   -1.24956150
 H                  5.16327143   -1.44798443   -1.16020455
 H                  2.07390729   -3.44190974   -0.69265098
 H                  1.50189580   -2.33598432    0.56288258
 H                  1.06517899   -2.05731320   -1.12847499

 1 2 1.0 25 1.0 30 1.5
 2 3 1.0 4 1.0 6 1.0
 3
 4 5 2.0 24 1.0
 5
 6 7 1.0 8 1.0 9 1.0
 7
 8
 9 10 2.0 12 1.5
 10 11 1.0 13 1.0
 11
 12 15 1.5 16 1.5
 13 14 1.0 15 1.5
 14
 15 18 1.5
 16 17 1.0 20 1.5
 17
 18 19 1.0 22 1.5
 19
 20 21 1.0 22 1.5
 21
 22 23 1.0
 23
 24 26 1.0
 25
 26 27 1.0 28 1.0 29 1.0
 27
 28
 29
 30 31 1.0 34 2.0
 31 32 2.0 33 1.0
 32 35 1.0 36 1.0
 33 37 1.0 38 1.0 39 1.0
 34
 35
 36
 37
 38
 39

