%nprocshared=8
%chk=D:\backups\Depo1\ChemChem\3\out\MATrp\MATrp_D11\MATrp_D11.chk
#p opt=tight freq b3lyp/6-31g(d,p) guess=save geom=connectivity

MATrp OptFreq tight B3LYP/6-31Gd

0 1
 N                  1.53086356   -0.71116515   -0.92830119
 C                  0.54907161   -0.23196091   -1.91183960
 H                  0.92083102    0.65285507   -2.38490995
 C                 -0.77840400    0.08616181   -1.19895361
 O                 -1.53462846    0.98555899   -1.64926440
 C                  0.31294772   -1.32153379   -2.97423140
 H                 -0.40169001   -0.97272550   -3.69014045
 H                  1.23528467   -1.54256718   -3.46954827
 C                 -0.22210777   -2.59500712   -2.29336354
 C                  0.52217150   -3.61725262   -1.79940876
 H                  1.58981983   -3.68716939   -1.81118499
 C                 -1.56794142   -2.91431036   -2.06835491
 N                 -0.41017775   -4.61136371   -1.24484163
 H                 -0.16578720   -5.47756158   -0.80898100
 C                 -1.64519767   -4.13765006   -1.43385897
 C                 -2.70672085   -2.18394162   -2.39407028
 H                 -2.63391749   -1.23653766   -2.88603104
 C                 -2.86534657   -4.70820767   -1.08487219
 H                 -2.91143960   -5.65742107   -0.59317171
 C                 -3.96060712   -2.73432140   -2.05398048
 H                 -4.85731782   -2.20009192   -2.28937122
 C                 -4.03972131   -3.99309355   -1.40112325
 H                 -4.99564213   -4.40155064   -1.14759177
 O                 -1.15171385   -0.64048058   -0.02527110
 H                  1.22340614   -1.20315459   -0.11379745
 C                 -2.57740134   -0.71828600    0.05385889
 H                 -2.85673104   -1.26199755    0.93206884
 H                 -2.98644845    0.26933318    0.10064451
 H                 -2.95579769   -1.22041165   -0.81192747
 C                  2.83558003   -0.48910744   -1.12284313
 C                  2.97755967   -2.02077310   -1.04907256
 C                  3.51917045   -2.70189181   -2.08796720
 C                  2.50407264   -2.77844027    0.20526018
 O                  3.22248428    0.13001451   -2.14781318
 H                  3.61782084   -3.76610082   -2.03671005
 H                  3.84814987   -2.17546097   -2.95948493
 H                  3.10060161   -3.65678658    0.33777781
 H                  2.60442202   -2.14641838    1.06280220
 H                  1.47821304   -3.05854692    0.08671740

 1 2 1.0 25 1.0 30 1.5
 2 3 1.0 4 1.0 6 1.0
 3
 4 5 2.0 24 1.0
 5
 6 7 1.0 8 1.0 9 1.0
 7
 8
 9 10 2.0 12 1.5
 10 11 1.0 13 1.0
 11
 12 15 1.5 16 1.5
 13 14 1.0 15 1.5
 14
 15 18 1.5
 16 17 1.0 20 1.5
 17
 18 19 1.0 22 1.5
 19
 20 21 1.0 22 1.5
 21
 22 23 1.0
 23
 24 26 1.0
 25
 26 27 1.0 28 1.0 29 1.0
 27
 28
 29
 30 31 1.0 34 2.0
 31 32 2.0 33 1.0
 32 35 1.0 36 1.0
 33 37 1.0 38 1.0 39 1.0
 34
 35
 36
 37
 38
 39