%nprocshared=8
%chk=Preview_31ihs.chk
#p opt=tight freq b3lyp/6-31g(d) guess=save geom=connectivity

MATrp OptFreq tight B3LYP/6-31Gd

0 1
 N                  1.89043300    0.43517900    0.00467500
 C                  1.02163600    1.12568000   -0.92808200
 H                  1.65811800    1.69331200   -1.61332400
 C                  0.10842100    2.12588700   -0.23426900
 O                 -0.54394800    2.95331100   -0.83323900
 C                  0.17560100    0.14835300   -1.80785300
 H                 -0.41602100    0.75937600   -2.49883100
 H                  0.90047200   -0.41107900   -2.40719200
 C                 -0.70244000   -0.79537600   -1.03972800
 C                 -0.36648300   -2.07066300   -0.65467300
 H                  0.54159600   -2.62676900   -0.84565400
 C                 -2.04072200   -0.56321900   -0.54192500
 N                 -1.40323900   -2.64294800    0.05794300
 H                 -1.42016800   -3.59092500    0.39989100
 C                 -2.44905900   -1.74593000    0.13629800
 C                 -2.94200900    0.51596800   -0.61603600
 H                 -2.66291900    1.43293800   -1.12661700
 C                 -3.70660500   -1.87215400    0.73593700
 H                 -3.99889200   -2.78542500    1.24823200
 C                 -4.19251600    0.39385300   -0.02154500
 H                 -4.89544000    1.22066500   -0.07842100
 C                 -4.57120000   -0.78749800    0.64899400
 H                 -5.55675600   -0.85324600    1.10187500
 O                  0.06514700    1.96077100    1.10445500
 H                  1.54002900    0.28370400    0.93777200
 C                 -0.86408500    2.80889800    1.80611600
 H                 -0.69935400    2.60828500    2.86494600
 H                 -0.67132800    3.85864500    1.57442900
 H                 -1.88724400    2.55219700    1.52063200
 C                  3.09615500   -0.07360400   -0.39148300
 C                  3.89042300   -0.78592800    0.67761900
 C                  3.59024437   -0.49958036    1.94898668
 C                  4.96712171   -1.77247266    0.29302132
 O                  3.50040400    0.05116300   -1.54696900
 H                  4.11135333   -0.96960199    2.77848930
 H                  2.80600660    0.21529672    2.17469385
 H                  5.43827986   -2.19859089    1.18333463
 H                  4.56403530   -2.60490826   -0.29897355
 H                  5.75890670   -1.30056486   -0.30506254

 1 2 1.0 25 1.0 30 1.5
 2 3 1.0 4 1.0 6 1.0
 3
 4 5 2.0 24 1.0
 5
 6 7 1.0 8 1.0 9 1.0
 7
 8
 9 10 2.0 12 1.5
 10 11 1.0 13 1.0
 11
 12 15 1.5 16 1.5
 13 14 1.0 15 1.5
 14
 15 18 1.5
 16 17 1.0 20 1.5
 17
 18 19 1.0 22 1.5
 19
 20 21 1.0 22 1.5
 21
 22 23 1.0
 23
 24 26 1.0
 25
 26 27 1.0 28 1.0 29 1.0
 27
 28
 29
 30 31 1.0 34 2.0
 31 32 2.0 33 1.0
 32 35 1.0 36 1.0
 33 37 1.0 38 1.0 39 1.0
 34
 35
 36
 37
 38
 39

