%nprocshared=8
%chk=D:\backups\Depo1\ChemChem\3\out\MATrp\MATrp_D10\MATrp_D10.chk
#p opt=tight freq b3lyp/6-31g(d,p) guess=save geom=connectivity

MATrp OptFreq tight B3LYP/6-31Gd

0 1
 N                  1.71479672   -0.11310731   -0.48882280
 C                  0.93124832    1.03661881   -1.00015494
 H                  1.58862312    1.73089824   -1.48050312
 C                  0.21703886    1.73333760    0.17291273
 O                 -0.01754747    2.96864711    0.12241338
 C                 -0.11476110    0.53510921   -2.01304798
 H                 -0.68039571    1.36502102   -2.38210619
 H                  0.38147531    0.05102531   -2.82810148
 C                 -1.06088910   -0.46413409   -1.32170554
 C                 -0.89127754   -1.80851619   -1.23925863
 H                 -0.07488877   -2.37018318   -1.64291633
 C                 -2.25720177   -0.15490386   -0.66059713
 N                 -2.03723214   -2.35078680   -0.49239362
 H                 -2.19926094   -3.31149508   -0.26703559
 C                 -2.82039086   -1.31657412   -0.17227969
 C                 -2.85885464    1.08605094   -0.47514475
 H                 -2.41242956    1.97970229   -0.85853999
 C                 -4.02032871   -1.31132849    0.53214401
 H                 -4.44635335   -2.21909147    0.90546611
 C                 -4.07721628    1.12663210    0.23531836
 H                 -4.56775608    2.06378197    0.39662812
 C                 -4.65641663   -0.06886009    0.73762732
 H                 -5.58068504   -0.02702529    1.27510083
 O                 -0.17958006    0.97653001    1.31957562
 H                  1.40734067   -0.60509733    0.32568110
 C                 -1.34626350    1.56595881    1.89950967
 H                 -1.64303433    0.99967612    2.75750210
 H                 -1.12920401    2.57161147    2.19353006
 H                 -2.13952506    1.56763000    1.18143356
 C                  2.42859927   -1.16049307   -0.02300578
 C                  1.95511658   -1.91815843    1.23132965
 C                  2.67151909   -2.96927366    1.69876010
 C                  0.66754019   -1.48137457    1.95449425
 O                  3.48073172   -1.51740948   -0.61393594
 H                  2.34254216   -3.49570199    2.57028026
 H                  3.56613277   -3.27275461    1.19630044
 H                  0.75000906   -1.70705351    2.99716768
 H                  0.52688526   -0.42828466    1.82753841
 H                 -0.16888848   -2.00530591    1.54123517

 1 2 1.0 25 1.0 30 1.5
 2 3 1.0 4 1.0 6 1.0
 3
 4 5 2.0 24 1.0
 5
 6 7 1.0 8 1.0 9 1.0
 7
 8
 9 10 2.0 12 1.5
 10 11 1.0 13 1.0
 11
 12 15 1.5 16 1.5
 13 14 1.0 15 1.5
 14
 15 18 1.5
 16 17 1.0 20 1.5
 17
 18 19 1.0 22 1.5
 19
 20 21 1.0 22 1.5
 21
 22 23 1.0
 23
 24 26 1.0
 25
 26 27 1.0 28 1.0 29 1.0
 27
 28
 29
 30 31 1.0 34 2.0
 31 32 2.0 33 1.0
 32 35 1.0 36 1.0
 33 37 1.0 38 1.0 39 1.0
 34
 35
 36
 37
 38
 39