%nprocshared=8
%chk=Preview_1pf8i.chk
#p opt=tight freq b3lyp/6-31g(d,p) guess=save geom=connectivity

MATrp OptFreq tight B3LYP/6-31Gd

0 1
 N                  1.89041900    0.43518700    0.00467600
 C                  1.02163400    1.12570000   -0.92807900
 H                  1.65812400    1.69333700   -1.61331100
 C                  0.10841800    2.12590500   -0.23426200
 O                 -0.54394300    2.95333800   -0.83323000
 C                  0.17560000    0.14838700   -1.80786900
 H                 -0.19426281   -0.64643534   -1.15039284
 H                 -0.69234286    0.72667308   -2.13933656
 C                  0.89941782   -0.42649643   -2.98989662
 C                  0.89224763    0.08845403   -4.26358056
 H                  0.36580857    0.95066126   -4.65061564
 C                  1.74627524   -1.59851361   -3.03355898
 N                  1.68636223   -0.67996804   -5.09370165
 H                  1.79826537   -0.53896007   -6.08540207
 C                  2.21720044   -1.72849891   -4.37029694
 C                  2.13949603   -2.56118473   -2.08429785
 H                  1.79786660   -2.49244106   -1.05571535
 C                  3.05934777   -2.77064629   -4.77233918
 H                  3.40663145   -2.85189199   -5.79934186
 C                  2.97601095   -3.59821212   -2.48042601
 H                  3.28019400   -4.34771787   -1.75470575
 C                  3.43280040   -3.70180440   -3.81054907
 H                  4.08422166   -4.52540204   -4.08998234
 O                  0.06513400    1.96077800    1.10445800
 H                  1.54000800    0.28370900    0.93777000
 C                 -0.86409400    2.80890200    1.80612500
 H                 -0.69935200    2.60829500    2.86495400
 H                 -0.67134600    3.85864900    1.57443200
 H                 -1.88725500    2.55219400    1.52065400
 C                  3.09614300   -0.07360100   -0.39147100
 C                  3.89039100   -0.78594200    0.67763500
 C                  5.07278200   -1.29611200    0.31686300
 C                  3.34479300   -0.89739900    2.08133300
 O                  3.50041100    0.05117600   -1.54694900
 H                  5.70813000   -1.82104100    1.02491200
 H                  5.42274100   -1.18803000   -0.70434600
 H                  4.04399600   -1.43599400    2.72728500
 H                  3.17193900    0.08960700    2.53058500
 H                  2.38899200   -1.43882500    2.10636900

 1 2 1.0 25 1.0 30 1.5
 2 3 1.0 4 1.0 6 1.0
 3
 4 5 2.0 24 1.0
 5
 6 7 1.0 8 1.0 9 1.0
 7
 8
 9 10 2.0 12 1.5
 10 11 1.0 13 1.0
 11
 12 15 1.5 16 1.5
 13 14 1.0 15 1.5
 14
 15 18 1.5
 16 17 1.0 20 1.5
 17
 18 19 1.0 22 1.5
 19
 20 21 1.0 22 1.5
 21
 22 23 1.0
 23
 24 26 1.0
 25
 26 27 1.0 28 1.0 29 1.0
 27
 28
 29
 30 31 1.0 34 2.0
 31 32 2.0 33 1.0
 32 35 1.0 36 1.0
 33 37 1.0 38 1.0 39 1.0
 34
 35
 36
 37
 38
 39

