%nprocshared=8
%chk=Preview_31ihs.chk
#p opt=tight freq b3lyp/6-31g(d) guess=save geom=connectivity

MATrp OptFreq tight B3LYP/6-31Gd

0 1
 N                 -1.89043000    0.43518400   -0.00467400
 C                 -1.02163600    1.12568100    0.92808900
 H                 -1.65812100    1.69330900    1.61333100
 C                 -0.10842300    2.12589300    0.23428100
 O                  0.56770068    3.12213998    0.38429097
 C                 -0.17560200    0.14835300    1.80785700
 H                  0.41601800    0.75937700    2.49883700
 H                 -0.90047100   -0.41108300    2.40719400
 C                  0.70244100   -0.79537300    1.03973100
 C                  0.36648100   -2.07066400    0.65468500
 H                 -0.54159900   -2.62676500    0.84567200
 C                  2.04071900   -0.56322000    0.54192000
 N                  1.40323300   -2.64295300   -0.05793200
 H                  1.42016000   -3.59093000   -0.39987900
 C                  2.44905300   -1.74593600   -0.13629800
 C                  2.94200700    0.51596800    0.61602000
 H                  2.66292000    1.43294000    1.12659900
 C                  3.70659700   -1.87216300   -0.73594000
 H                  3.99888200   -2.78543700   -1.24823200
 C                  4.19251200    0.39384800    0.02152500
 H                  4.89543700    1.22065900    0.07839200
 C                  4.57119300   -0.78750800   -0.64900900
 H                  5.55674700   -0.85325900   -1.10189300
 O                 -0.06514700    1.96078600   -1.10444300
 H                 -1.54003200    0.28373000   -0.93777700
 C                  0.86408000    2.80892100   -1.80610100
 H                  0.69933400    2.60833000   -2.86493200
 H                  0.64757932    3.68983902   -1.12542397
 H                  1.88724100    2.55220700   -1.52063600
 C                 -3.09614700   -0.07361400    0.39148000
 C                 -3.89041400   -0.78592900   -0.67763000
 C                 -5.07278800   -1.29613000   -0.31684400
 C                 -3.34485600   -0.89732200   -2.08134700
 O                 -3.50039400    0.05113400    1.54696900
 H                 -5.70814800   -1.82104200   -1.02489500
 H                 -5.42272100   -1.18809100    0.70437900
 H                 -4.04407200   -1.43589600   -2.72730200
 H                 -3.17202200    0.08970500   -2.53056000
 H                 -2.38905000   -1.43874000   -2.10643600

 1 2 1.0 25 1.0 30 1.5
 2 3 1.0 4 1.0 6 1.0
 3
 4 5 2.0 24 1.0
 5 28 0.5
 6 7 1.0 8 1.0 9 1.0
 7
 8
 9 10 2.0 12 1.5
 10 11 1.0 13 1.0
 11
 12 15 1.5 16 1.5
 13 14 1.0 15 1.5
 14
 15 18 1.5
 16 17 1.0 20 1.5
 17
 18 19 1.0 22 1.5
 19
 20 21 1.0 22 1.5
 21
 22 23 1.0
 23
 24 26 1.0
 25
 26 27 1.0 28 1.0 29 1.0
 27
 28
 29
 30 31 1.0 34 2.0
 31 32 2.0 33 1.0
 32 35 1.0 36 1.0
 33 37 1.0 38 1.0 39 1.0
 34
 35
 36
 37
 38
 39

