%nprocshared=28
%mem=6GB
%chk=MATrp_OptFreq.chk
#p opt=tight freq b3lyp/6-31g(d) guess=save geom=connectivity

MATrp OptFreq tight B3LYP/6-31Gd

0 1
 N                 -3.08170000    2.39190000    1.11420000
 C                 -2.94440000    3.85370000    1.31110000
 H                 -3.68370000    4.35800000    0.63080000
 C                 -1.59040000    4.44870000    0.91620000
 O                 -1.15720000    5.53980000    1.22510000
 C                 -3.33830000    4.23730000    2.74200000
 H                 -3.35240000    5.34800000    2.78980000
 H                 -4.39160000    3.91670000    2.89550000
 C                 -2.57010000    3.76760000    3.92300000
 C                 -2.96410000    4.19170000    5.18300000
 H                 -3.78950000    4.85840000    5.43770000
 C                 -1.41840000    2.91070000    4.10220000
 N                 -2.15910000    3.58260000    6.16550000
 H                 -2.05290000    3.93850000    7.08060000
 C                 -1.15600000    2.84560000    5.50180000
 C                 -0.57200000    2.19290000    3.24500000
 H                 -0.72870000    2.20340000    2.15990000
 C                 -0.09370000    2.10610000    6.04080000
 H                  0.08400000    2.07970000    7.12030000
 C                  0.47420000    1.46590000    3.77430000
 H                  1.13890000    0.90910000    3.10560000
 C                  0.71580000    1.42170000    5.15960000
 H                  1.56030000    0.83490000    5.53530000
 O                 -0.84300000    3.66740000    0.07560000
 H                 -2.32620000    1.87190000    1.52020000
 C                  0.40750000    4.15080000   -0.36710000
 H                  0.74440000    3.35000000   -1.03030000
 H                  0.31130000    5.09100000   -0.92050000
 H                  1.10650000    4.28010000    0.46610000
 C                 -3.60610000    1.84900000   -0.09610000
 C                 -3.39020000    0.39300000   -0.35660000
 C                 -3.54620000   -0.08800000   -1.59310000
 C                 -3.02070000   -0.49690000    0.77730000
 O                 -4.26060000    2.57560000   -0.83170000
 H                 -3.40770000   -1.13930000   -1.83250000
 H                 -3.82810000    0.53400000   -2.43940000
 H                 -3.01640000   -1.55460000    0.48030000
 H                 -2.01480000   -0.26500000    1.15850000
 H                 -3.72730000   -0.39470000    1.61210000

 1 2 1.0 25 1.0 30 1.0
 2 3 1.0 4 1.0 6 1.0
 3
 4 5 2.0 24 1.0
 5
 6 9 1.0 7 1.0 8 1.0
 7
 8
 9 10 1.5 12 1.5
 10 13 1.5 11 1.0
 11
 12 15 1.5 16 1.5
 13 15 1.5 14 1.0
 14
 15 18 1.5
 16 20 1.5 17 1.0
 17
 18 22 1.5 19 1.0
 19
 20 22 1.5 21 1.0
 21
 22 23 1.0
 23
 24 26 1.0
 25
 26 27 1.0 28 1.0 29 1.0
 27
 28
 29
 30 31 1.0 34 2.0
 31 32 2.0 33 1.0
 32 35 1.0 36 1.0
 33 37 1.0 38 1.0 39 1.0
 34
 35
 36
 37
 38
 39

